benchmark/results/graph__10-1000-0.10-03_1/graph__10-1000-0.10-03_1_QuintonOs_Monolithic.lp
\ This file has been generated by DOcplex
\ ENCODING=ISO-8859-1
\Problem name: Quinton Bounded Monolithic

Maximize
 obj: tau
Subject To
 c1: tau - 0.001605136437 m_a0_proc_0 - 0.001203369434 m_a0_proc_1
     - 0.000841750842 m_a0_proc_2 <= 0
 c2: y_a0_proc_0 + y_a0_proc_1 + y_a0_proc_2 - tau = 0
 c3: m_a0_proc_0 + m_a0_proc_1 + m_a0_proc_2 = 1
 c4: y_a0_proc_0 - m_a0_proc_0 <= 0
 c5: y_a0_proc_0 >= 0
 c6: y_a0_proc_1 - m_a0_proc_1 <= 0
 c7: y_a0_proc_1 >= 0
 c8: y_a0_proc_2 - m_a0_proc_2 <= 0
 c9: y_a0_proc_2 >= 0
 c10: tau - 0.001814882033 m_a1_proc_0 - 0.000933706816 m_a1_proc_1
      - 0.001483679525 m_a1_proc_2 <= 0
 c11: y_a1_proc_0 + y_a1_proc_1 + y_a1_proc_2 - tau = 0
 c12: m_a1_proc_0 + m_a1_proc_1 + m_a1_proc_2 = 1
 c13: y_a1_proc_0 - m_a1_proc_0 <= 0
 c14: y_a1_proc_0 >= 0
 c15: y_a1_proc_1 - m_a1_proc_1 <= 0
 c16: y_a1_proc_1 >= 0
 c17: y_a1_proc_2 - m_a1_proc_2 <= 0
 c18: y_a1_proc_2 >= 0
 c19: tau - 0.000986193294 m_a2_proc_0 - 0.000820344545 m_a2_proc_1
      - 0.000999000999 m_a2_proc_2 <= 0
 c20: y_a2_proc_0 + y_a2_proc_1 + y_a2_proc_2 - tau = 0
 c21: m_a2_proc_0 + m_a2_proc_1 + m_a2_proc_2 = 1
 c22: y_a2_proc_0 - m_a2_proc_0 <= 0
 c23: y_a2_proc_0 >= 0
 c24: y_a2_proc_1 - m_a2_proc_1 <= 0
 c25: y_a2_proc_1 >= 0
 c26: y_a2_proc_2 - m_a2_proc_2 <= 0
 c27: y_a2_proc_2 >= 0
 c28: tau - 0.001373626374 m_a3_proc_0 - 0.001652892562 m_a3_proc_2 <= 0
 c29: y_a3_proc_0 + y_a3_proc_2 - tau = 0
 c30: m_a3_proc_0 + m_a3_proc_2 = 1
 c31: y_a3_proc_0 - m_a3_proc_0 <= 0
 c32: y_a3_proc_0 >= 0
 c33: y_a3_proc_2 - m_a3_proc_2 <= 0
 c34: y_a3_proc_2 >= 0
 c35: tau - 0.000881834215 m_a4_proc_0 - 0.002840909091 m_a4_proc_1
      - 0.000811030008 m_a4_proc_2 <= 0
 c36: y_a4_proc_0 + y_a4_proc_1 + y_a4_proc_2 - tau = 0
 c37: m_a4_proc_0 + m_a4_proc_1 + m_a4_proc_2 = 1
 c38: y_a4_proc_0 - m_a4_proc_0 <= 0
 c39: y_a4_proc_0 >= 0
 c40: y_a4_proc_1 - m_a4_proc_1 <= 0
 c41: y_a4_proc_1 >= 0
 c42: y_a4_proc_2 - m_a4_proc_2 <= 0
 c43: y_a4_proc_2 >= 0
 c44: tau - 0.001398601399 m_a5_proc_1 <= 0
 c45: y_a5_proc_1 - tau = 0
 c46: m_a5_proc_1 = 1
 c47: y_a5_proc_1 - m_a5_proc_1 <= 0
 c48: y_a5_proc_1 >= 0
 c49: tau - 0.001146788991 m_a6_proc_0 - 0.001070663812 m_a6_proc_1
      - 0.000841750842 m_a6_proc_2 <= 0
 c50: y_a6_proc_0 + y_a6_proc_1 + y_a6_proc_2 - tau = 0
 c51: m_a6_proc_0 + m_a6_proc_1 + m_a6_proc_2 = 1
 c52: y_a6_proc_0 - m_a6_proc_0 <= 0
 c53: y_a6_proc_0 >= 0
 c54: y_a6_proc_1 - m_a6_proc_1 <= 0
 c55: y_a6_proc_1 >= 0
 c56: y_a6_proc_2 - m_a6_proc_2 <= 0
 c57: y_a6_proc_2 >= 0
 c58: tau - 0.000974658869 m_a7_proc_0 - 0.001259445844 m_a7_proc_1
      - 0.001342281879 m_a7_proc_2 <= 0
 c59: y_a7_proc_0 + y_a7_proc_1 + y_a7_proc_2 - tau = 0
 c60: m_a7_proc_0 + m_a7_proc_1 + m_a7_proc_2 = 1
 c61: y_a7_proc_0 - m_a7_proc_0 <= 0
 c62: y_a7_proc_0 >= 0
 c63: y_a7_proc_1 - m_a7_proc_1 <= 0
 c64: y_a7_proc_1 >= 0
 c65: y_a7_proc_2 - m_a7_proc_2 <= 0
 c66: y_a7_proc_2 >= 0
 c67: tau - 0.000781250000 m_a8_proc_0 - 0.000969932105 m_a8_proc_1 <= 0
 c68: y_a8_proc_0 + y_a8_proc_1 - tau = 0
 c69: m_a8_proc_0 + m_a8_proc_1 = 1
 c70: y_a8_proc_0 - m_a8_proc_0 <= 0
 c71: y_a8_proc_0 >= 0
 c72: y_a8_proc_1 - m_a8_proc_1 <= 0
 c73: y_a8_proc_1 >= 0
 c74: tau - 0.000947867299 m_a9_proc_1 - 0.000979431929 m_a9_proc_2 <= 0
 c75: y_a9_proc_1 + y_a9_proc_2 - tau = 0
 c76: m_a9_proc_1 + m_a9_proc_2 = 1
 c77: y_a9_proc_1 - m_a9_proc_1 <= 0
 c78: y_a9_proc_1 >= 0
 c79: y_a9_proc_2 - m_a9_proc_2 <= 0
 c80: y_a9_proc_2 >= 0
 c81: u_a0 - u_a1 - 551 y_a1_proc_0 - 1071 y_a1_proc_1 - 674 y_a1_proc_2 >= 0
 c82: u_a1 - u_a2 - 1014 y_a2_proc_0 - 1219 y_a2_proc_1 - 1001 y_a2_proc_2 >= 0
 c83: u_a3 - u_a1 - 551 y_a1_proc_0 - 1071 y_a1_proc_1 - 674 y_a1_proc_2 >= -1
 c84: u_a4 - u_a3 - 728 y_a3_proc_0 - 605 y_a3_proc_2 >= 0
 c85: u_a5 - u_a0 - 623 y_a0_proc_0 - 831 y_a0_proc_1 - 1188 y_a0_proc_2 >= 0
 c86: u_a2 - u_a6 - 872 y_a6_proc_0 - 934 y_a6_proc_1 - 1188 y_a6_proc_2 >= 0
 c87: u_a7 - u_a3 - 728 y_a3_proc_0 - 605 y_a3_proc_2 >= 0
 c88: u_a8 - u_a5 - 715 y_a5_proc_1 >= 0
 c89: u_a2 - u_a9 - 1055 y_a9_proc_1 - 1021 y_a9_proc_2 >= 0
 c90: u_a9 - u_a7 - 1026 y_a7_proc_0 - 794 y_a7_proc_1 - 745 y_a7_proc_2 >= 0
 c91: - 1134 y_a4_proc_0 - 352 y_a4_proc_1 - 1233 y_a4_proc_2 >= -1
 c92: u_a9 - u_a3 - 728 y_a3_proc_0 - 605 y_a3_proc_2 >= 0
 c93: u_a4 - u_a8 - 1280 y_a8_proc_0 - 1031 y_a8_proc_1 >= 0
 c94: u_a6 - u_a1 - 551 y_a1_proc_0 - 1071 y_a1_proc_1 - 674 y_a1_proc_2 >= -1
 c95: u_a6 - u_a0 - 623 y_a0_proc_0 - 831 y_a0_proc_1 - 1188 y_a0_proc_2 >= -1
 c96: u_a5 - u_a4 - 1134 y_a4_proc_0 - 352 y_a4_proc_1 - 1233 y_a4_proc_2 >= -1
 c97: u_a9 - u_a0 - 623 y_a0_proc_0 - 831 y_a0_proc_1 - 1188 y_a0_proc_2 >= -1
 c98: u_a1 + K_a0_a1 - 1280 m_a0_proc_2 - 1280 m_a1_proc_2 - u_a0
      - 1188 y_a0_proc_2 >= -2560
 c99: u_a1 + K_a0_a1 - 1280 m_a0_proc_0 - 1280 m_a1_proc_0 - u_a0
      - 623 y_a0_proc_0 >= -2560
 c100: u_a1 + K_a0_a1 - 1280 m_a0_proc_1 - 1280 m_a1_proc_1 - u_a0
       - 831 y_a0_proc_1 >= -2560
 c101: K_a0_a1 + K_a1_a0 = 1
 c102: u_a0 + K_a1_a0 - 1280 m_a0_proc_2 - 1280 m_a1_proc_2 - u_a1
       - 674 y_a1_proc_2 >= -2560
 c103: u_a0 + K_a1_a0 - 1280 m_a0_proc_0 - 1280 m_a1_proc_0 - u_a1
       - 551 y_a1_proc_0 >= -2560
 c104: u_a0 + K_a1_a0 - 1280 m_a0_proc_1 - 1280 m_a1_proc_1 - u_a1
       - 1071 y_a1_proc_1 >= -2560
 c105: K_a0_a1 + K_a1_a0 = 1
 c106: u_a2 + K_a0_a2 - 1280 m_a0_proc_2 - 1280 m_a2_proc_2 - u_a0
       - 1188 y_a0_proc_2 >= -2560
 c107: u_a2 + K_a0_a2 - 1280 m_a0_proc_0 - 1280 m_a2_proc_0 - u_a0
       - 623 y_a0_proc_0 >= -2560
 c108: u_a2 + K_a0_a2 - 1280 m_a0_proc_1 - 1280 m_a2_proc_1 - u_a0
       - 831 y_a0_proc_1 >= -2560
 c109: K_a0_a2 + K_a2_a0 = 1
 c110: u_a0 + K_a2_a0 - 1280 m_a0_proc_2 - 1280 m_a2_proc_2 - u_a2
       - 1001 y_a2_proc_2 >= -2560
 c111: u_a0 + K_a2_a0 - 1280 m_a0_proc_0 - 1280 m_a2_proc_0 - u_a2
       - 1014 y_a2_proc_0 >= -2560
 c112: u_a0 + K_a2_a0 - 1280 m_a0_proc_1 - 1280 m_a2_proc_1 - u_a2
       - 1219 y_a2_proc_1 >= -2560
 c113: K_a0_a2 + K_a2_a0 = 1
 c114: u_a3 + K_a0_a3 - 1280 m_a0_proc_2 - 1280 m_a3_proc_2 - u_a0
       - 1188 y_a0_proc_2 >= -2560
 c115: u_a3 + K_a0_a3 - 1280 m_a0_proc_0 - 1280 m_a3_proc_0 - u_a0
       - 623 y_a0_proc_0 >= -2560
 c116: K_a0_a3 + K_a3_a0 = 1
 c117: u_a0 + K_a3_a0 - 1280 m_a0_proc_2 - 1280 m_a3_proc_2 - u_a3
       - 605 y_a3_proc_2 >= -2560
 c118: u_a0 + K_a3_a0 - 1280 m_a0_proc_0 - 1280 m_a3_proc_0 - u_a3
       - 728 y_a3_proc_0 >= -2560
 c119: K_a0_a3 + K_a3_a0 = 1
 c120: u_a4 + K_a0_a4 - 1280 m_a0_proc_2 - 1280 m_a4_proc_2 - u_a0
       - 1188 y_a0_proc_2 >= -2560
 c121: u_a4 + K_a0_a4 - 1280 m_a0_proc_0 - 1280 m_a4_proc_0 - u_a0
       - 623 y_a0_proc_0 >= -2560
 c122: u_a4 + K_a0_a4 - 1280 m_a0_proc_1 - 1280 m_a4_proc_1 - u_a0
       - 831 y_a0_proc_1 >= -2560
 c123: K_a0_a4 + K_a4_a0 = 1
 c124: u_a0 + K_a4_a0 - 1280 m_a0_proc_2 - 1280 m_a4_proc_2 - u_a4
       - 1233 y_a4_proc_2 >= -2560
 c125: u_a0 + K_a4_a0 - 1280 m_a0_proc_0 - 1280 m_a4_proc_0 - u_a4
       - 1134 y_a4_proc_0 >= -2560
 c126: u_a0 + K_a4_a0 - 1280 m_a0_proc_1 - 1280 m_a4_proc_1 - u_a4
       - 352 y_a4_proc_1 >= -2560
 c127: K_a0_a4 + K_a4_a0 = 1
 c128: u_a5 + K_a0_a5 - 1280 m_a0_proc_1 - 1280 m_a5_proc_1 - u_a0
       - 831 y_a0_proc_1 >= -2560
 c129: K_a0_a5 + K_a5_a0 = 1
 c130: u_a0 + K_a5_a0 - 1280 m_a0_proc_1 - 1280 m_a5_proc_1 - u_a5
       - 715 y_a5_proc_1 >= -2560
 c131: K_a0_a5 + K_a5_a0 = 1
 c132: u_a6 + K_a0_a6 - 1280 m_a0_proc_2 - 1280 m_a6_proc_2 - u_a0
       - 1188 y_a0_proc_2 >= -2560
 c133: u_a6 + K_a0_a6 - 1280 m_a0_proc_0 - 1280 m_a6_proc_0 - u_a0
       - 623 y_a0_proc_0 >= -2560
 c134: u_a6 + K_a0_a6 - 1280 m_a0_proc_1 - 1280 m_a6_proc_1 - u_a0
       - 831 y_a0_proc_1 >= -2560
 c135: K_a0_a6 + K_a6_a0 = 1
 c136: u_a0 + K_a6_a0 - 1280 m_a0_proc_2 - 1280 m_a6_proc_2 - u_a6
       - 1188 y_a6_proc_2 >= -2560
 c137: u_a0 + K_a6_a0 - 1280 m_a0_proc_0 - 1280 m_a6_proc_0 - u_a6
       - 872 y_a6_proc_0 >= -2560
 c138: u_a0 + K_a6_a0 - 1280 m_a0_proc_1 - 1280 m_a6_proc_1 - u_a6
       - 934 y_a6_proc_1 >= -2560
 c139: K_a0_a6 + K_a6_a0 = 1
 c140: u_a7 + K_a0_a7 - 1280 m_a0_proc_2 - 1280 m_a7_proc_2 - u_a0
       - 1188 y_a0_proc_2 >= -2560
 c141: u_a7 + K_a0_a7 - 1280 m_a0_proc_0 - 1280 m_a7_proc_0 - u_a0
       - 623 y_a0_proc_0 >= -2560
 c142: u_a7 + K_a0_a7 - 1280 m_a0_proc_1 - 1280 m_a7_proc_1 - u_a0
       - 831 y_a0_proc_1 >= -2560
 c143: K_a0_a7 + K_a7_a0 = 1
 c144: u_a0 + K_a7_a0 - 1280 m_a0_proc_2 - 1280 m_a7_proc_2 - u_a7
       - 745 y_a7_proc_2 >= -2560
 c145: u_a0 + K_a7_a0 - 1280 m_a0_proc_0 - 1280 m_a7_proc_0 - u_a7
       - 1026 y_a7_proc_0 >= -2560
 c146: u_a0 + K_a7_a0 - 1280 m_a0_proc_1 - 1280 m_a7_proc_1 - u_a7
       - 794 y_a7_proc_1 >= -2560
 c147: K_a0_a7 + K_a7_a0 = 1
 c148: u_a8 + K_a0_a8 - 1280 m_a0_proc_0 - 1280 m_a8_proc_0 - u_a0
       - 623 y_a0_proc_0 >= -2560
 c149: u_a8 + K_a0_a8 - 1280 m_a0_proc_1 - 1280 m_a8_proc_1 - u_a0
       - 831 y_a0_proc_1 >= -2560
 c150: K_a0_a8 + K_a8_a0 = 1
 c151: u_a0 + K_a8_a0 - 1280 m_a0_proc_0 - 1280 m_a8_proc_0 - u_a8
       - 1280 y_a8_proc_0 >= -2560
 c152: u_a0 + K_a8_a0 - 1280 m_a0_proc_1 - 1280 m_a8_proc_1 - u_a8
       - 1031 y_a8_proc_1 >= -2560
 c153: K_a0_a8 + K_a8_a0 = 1
 c154: u_a9 + K_a0_a9 - 1280 m_a0_proc_2 - 1280 m_a9_proc_2 - u_a0
       - 1188 y_a0_proc_2 >= -2560
 c155: u_a9 + K_a0_a9 - 1280 m_a0_proc_1 - 1280 m_a9_proc_1 - u_a0
       - 831 y_a0_proc_1 >= -2560
 c156: K_a0_a9 + K_a9_a0 = 1
 c157: u_a0 + K_a9_a0 - 1280 m_a0_proc_2 - 1280 m_a9_proc_2 - u_a9
       - 1021 y_a9_proc_2 >= -2560
 c158: u_a0 + K_a9_a0 - 1280 m_a0_proc_1 - 1280 m_a9_proc_1 - u_a9
       - 1055 y_a9_proc_1 >= -2560
 c159: K_a0_a9 + K_a9_a0 = 1
 c160: u_a2 + K_a1_a2 - 1280 m_a1_proc_2 - 1280 m_a2_proc_2 - u_a1
       - 674 y_a1_proc_2 >= -2560
 c161: u_a2 + K_a1_a2 - 1280 m_a1_proc_0 - 1280 m_a2_proc_0 - u_a1
       - 551 y_a1_proc_0 >= -2560
 c162: u_a2 + K_a1_a2 - 1280 m_a1_proc_1 - 1280 m_a2_proc_1 - u_a1
       - 1071 y_a1_proc_1 >= -2560
 c163: K_a1_a2 + K_a2_a1 = 1
 c164: u_a1 + K_a2_a1 - 1280 m_a1_proc_2 - 1280 m_a2_proc_2 - u_a2
       - 1001 y_a2_proc_2 >= -2560
 c165: u_a1 + K_a2_a1 - 1280 m_a1_proc_0 - 1280 m_a2_proc_0 - u_a2
       - 1014 y_a2_proc_0 >= -2560
 c166: u_a1 + K_a2_a1 - 1280 m_a1_proc_1 - 1280 m_a2_proc_1 - u_a2
       - 1219 y_a2_proc_1 >= -2560
 c167: K_a1_a2 + K_a2_a1 = 1
 c168: u_a3 + K_a1_a3 - 1280 m_a1_proc_2 - 1280 m_a3_proc_2 - u_a1
       - 674 y_a1_proc_2 >= -2560
 c169: u_a3 + K_a1_a3 - 1280 m_a1_proc_0 - 1280 m_a3_proc_0 - u_a1
       - 551 y_a1_proc_0 >= -2560
 c170: K_a1_a3 + K_a3_a1 = 1
 c171: u_a1 + K_a3_a1 - 1280 m_a1_proc_2 - 1280 m_a3_proc_2 - u_a3
       - 605 y_a3_proc_2 >= -2560
 c172: u_a1 + K_a3_a1 - 1280 m_a1_proc_0 - 1280 m_a3_proc_0 - u_a3
       - 728 y_a3_proc_0 >= -2560
 c173: K_a1_a3 + K_a3_a1 = 1
 c174: u_a4 + K_a1_a4 - 1280 m_a1_proc_2 - 1280 m_a4_proc_2 - u_a1
       - 674 y_a1_proc_2 >= -2560
 c175: u_a4 + K_a1_a4 - 1280 m_a1_proc_0 - 1280 m_a4_proc_0 - u_a1
       - 551 y_a1_proc_0 >= -2560
 c176: u_a4 + K_a1_a4 - 1280 m_a1_proc_1 - 1280 m_a4_proc_1 - u_a1
       - 1071 y_a1_proc_1 >= -2560
 c177: K_a1_a4 + K_a4_a1 = 1
 c178: u_a1 + K_a4_a1 - 1280 m_a1_proc_2 - 1280 m_a4_proc_2 - u_a4
       - 1233 y_a4_proc_2 >= -2560
 c179: u_a1 + K_a4_a1 - 1280 m_a1_proc_0 - 1280 m_a4_proc_0 - u_a4
       - 1134 y_a4_proc_0 >= -2560
 c180: u_a1 + K_a4_a1 - 1280 m_a1_proc_1 - 1280 m_a4_proc_1 - u_a4
       - 352 y_a4_proc_1 >= -2560
 c181: K_a1_a4 + K_a4_a1 = 1
 c182: u_a5 + K_a1_a5 - 1280 m_a1_proc_1 - 1280 m_a5_proc_1 - u_a1
       - 1071 y_a1_proc_1 >= -2560
 c183: K_a1_a5 + K_a5_a1 = 1
 c184: u_a1 + K_a5_a1 - 1280 m_a1_proc_1 - 1280 m_a5_proc_1 - u_a5
       - 715 y_a5_proc_1 >= -2560
 c185: K_a1_a5 + K_a5_a1 = 1
 c186: u_a6 + K_a1_a6 - 1280 m_a1_proc_2 - 1280 m_a6_proc_2 - u_a1
       - 674 y_a1_proc_2 >= -2560
 c187: u_a6 + K_a1_a6 - 1280 m_a1_proc_0 - 1280 m_a6_proc_0 - u_a1
       - 551 y_a1_proc_0 >= -2560
 c188: u_a6 + K_a1_a6 - 1280 m_a1_proc_1 - 1280 m_a6_proc_1 - u_a1
       - 1071 y_a1_proc_1 >= -2560
 c189: K_a1_a6 + K_a6_a1 = 1
 c190: u_a1 + K_a6_a1 - 1280 m_a1_proc_2 - 1280 m_a6_proc_2 - u_a6
       - 1188 y_a6_proc_2 >= -2560
 c191: u_a1 + K_a6_a1 - 1280 m_a1_proc_0 - 1280 m_a6_proc_0 - u_a6
       - 872 y_a6_proc_0 >= -2560
 c192: u_a1 + K_a6_a1 - 1280 m_a1_proc_1 - 1280 m_a6_proc_1 - u_a6
       - 934 y_a6_proc_1 >= -2560
 c193: K_a1_a6 + K_a6_a1 = 1
 c194: u_a7 + K_a1_a7 - 1280 m_a1_proc_2 - 1280 m_a7_proc_2 - u_a1
       - 674 y_a1_proc_2 >= -2560
 c195: u_a7 + K_a1_a7 - 1280 m_a1_proc_0 - 1280 m_a7_proc_0 - u_a1
       - 551 y_a1_proc_0 >= -2560
 c196: u_a7 + K_a1_a7 - 1280 m_a1_proc_1 - 1280 m_a7_proc_1 - u_a1
       - 1071 y_a1_proc_1 >= -2560
 c197: K_a1_a7 + K_a7_a1 = 1
 c198: u_a1 + K_a7_a1 - 1280 m_a1_proc_2 - 1280 m_a7_proc_2 - u_a7
       - 745 y_a7_proc_2 >= -2560
 c199: u_a1 + K_a7_a1 - 1280 m_a1_proc_0 - 1280 m_a7_proc_0 - u_a7
       - 1026 y_a7_proc_0 >= -2560
 c200: u_a1 + K_a7_a1 - 1280 m_a1_proc_1 - 1280 m_a7_proc_1 - u_a7
       - 794 y_a7_proc_1 >= -2560
 c201: K_a1_a7 + K_a7_a1 = 1
 c202: u_a8 + K_a1_a8 - 1280 m_a1_proc_0 - 1280 m_a8_proc_0 - u_a1
       - 551 y_a1_proc_0 >= -2560
 c203: u_a8 + K_a1_a8 - 1280 m_a1_proc_1 - 1280 m_a8_proc_1 - u_a1
       - 1071 y_a1_proc_1 >= -2560
 c204: K_a1_a8 + K_a8_a1 = 1
 c205: u_a1 + K_a8_a1 - 1280 m_a1_proc_0 - 1280 m_a8_proc_0 - u_a8
       - 1280 y_a8_proc_0 >= -2560
 c206: u_a1 + K_a8_a1 - 1280 m_a1_proc_1 - 1280 m_a8_proc_1 - u_a8
       - 1031 y_a8_proc_1 >= -2560
 c207: K_a1_a8 + K_a8_a1 = 1
 c208: u_a9 + K_a1_a9 - 1280 m_a1_proc_2 - 1280 m_a9_proc_2 - u_a1
       - 674 y_a1_proc_2 >= -2560
 c209: u_a9 + K_a1_a9 - 1280 m_a1_proc_1 - 1280 m_a9_proc_1 - u_a1
       - 1071 y_a1_proc_1 >= -2560
 c210: K_a1_a9 + K_a9_a1 = 1
 c211: u_a1 + K_a9_a1 - 1280 m_a1_proc_2 - 1280 m_a9_proc_2 - u_a9
       - 1021 y_a9_proc_2 >= -2560
 c212: u_a1 + K_a9_a1 - 1280 m_a1_proc_1 - 1280 m_a9_proc_1 - u_a9
       - 1055 y_a9_proc_1 >= -2560
 c213: K_a1_a9 + K_a9_a1 = 1
 c214: u_a3 + K_a2_a3 - 1280 m_a2_proc_2 - 1280 m_a3_proc_2 - u_a2
       - 1001 y_a2_proc_2 >= -2560
 c215: u_a3 + K_a2_a3 - 1280 m_a2_proc_0 - 1280 m_a3_proc_0 - u_a2
       - 1014 y_a2_proc_0 >= -2560
 c216: K_a2_a3 + K_a3_a2 = 1
 c217: u_a2 + K_a3_a2 - 1280 m_a2_proc_2 - 1280 m_a3_proc_2 - u_a3
       - 605 y_a3_proc_2 >= -2560
 c218: u_a2 + K_a3_a2 - 1280 m_a2_proc_0 - 1280 m_a3_proc_0 - u_a3
       - 728 y_a3_proc_0 >= -2560
 c219: K_a2_a3 + K_a3_a2 = 1
 c220: u_a4 + K_a2_a4 - 1280 m_a2_proc_2 - 1280 m_a4_proc_2 - u_a2
       - 1001 y_a2_proc_2 >= -2560
 c221: u_a4 + K_a2_a4 - 1280 m_a2_proc_0 - 1280 m_a4_proc_0 - u_a2
       - 1014 y_a2_proc_0 >= -2560
 c222: u_a4 + K_a2_a4 - 1280 m_a2_proc_1 - 1280 m_a4_proc_1 - u_a2
       - 1219 y_a2_proc_1 >= -2560
 c223: K_a2_a4 + K_a4_a2 = 1
 c224: u_a2 + K_a4_a2 - 1280 m_a2_proc_2 - 1280 m_a4_proc_2 - u_a4
       - 1233 y_a4_proc_2 >= -2560
 c225: u_a2 + K_a4_a2 - 1280 m_a2_proc_0 - 1280 m_a4_proc_0 - u_a4
       - 1134 y_a4_proc_0 >= -2560
 c226: u_a2 + K_a4_a2 - 1280 m_a2_proc_1 - 1280 m_a4_proc_1 - u_a4
       - 352 y_a4_proc_1 >= -2560
 c227: K_a2_a4 + K_a4_a2 = 1
 c228: u_a5 + K_a2_a5 - 1280 m_a2_proc_1 - 1280 m_a5_proc_1 - u_a2
       - 1219 y_a2_proc_1 >= -2560
 c229: K_a2_a5 + K_a5_a2 = 1
 c230: u_a2 + K_a5_a2 - 1280 m_a2_proc_1 - 1280 m_a5_proc_1 - u_a5
       - 715 y_a5_proc_1 >= -2560
 c231: K_a2_a5 + K_a5_a2 = 1
 c232: u_a6 + K_a2_a6 - 1280 m_a2_proc_2 - 1280 m_a6_proc_2 - u_a2
       - 1001 y_a2_proc_2 >= -2560
 c233: u_a6 + K_a2_a6 - 1280 m_a2_proc_0 - 1280 m_a6_proc_0 - u_a2
       - 1014 y_a2_proc_0 >= -2560
 c234: u_a6 + K_a2_a6 - 1280 m_a2_proc_1 - 1280 m_a6_proc_1 - u_a2
       - 1219 y_a2_proc_1 >= -2560
 c235: K_a2_a6 + K_a6_a2 = 1
 c236: u_a2 + K_a6_a2 - 1280 m_a2_proc_2 - 1280 m_a6_proc_2 - u_a6
       - 1188 y_a6_proc_2 >= -2560
 c237: u_a2 + K_a6_a2 - 1280 m_a2_proc_0 - 1280 m_a6_proc_0 - u_a6
       - 872 y_a6_proc_0 >= -2560
 c238: u_a2 + K_a6_a2 - 1280 m_a2_proc_1 - 1280 m_a6_proc_1 - u_a6
       - 934 y_a6_proc_1 >= -2560
 c239: K_a2_a6 + K_a6_a2 = 1
 c240: u_a7 + K_a2_a7 - 1280 m_a2_proc_2 - 1280 m_a7_proc_2 - u_a2
       - 1001 y_a2_proc_2 >= -2560
 c241: u_a7 + K_a2_a7 - 1280 m_a2_proc_0 - 1280 m_a7_proc_0 - u_a2
       - 1014 y_a2_proc_0 >= -2560
 c242: u_a7 + K_a2_a7 - 1280 m_a2_proc_1 - 1280 m_a7_proc_1 - u_a2
       - 1219 y_a2_proc_1 >= -2560
 c243: K_a2_a7 + K_a7_a2 = 1
 c244: u_a2 + K_a7_a2 - 1280 m_a2_proc_2 - 1280 m_a7_proc_2 - u_a7
       - 745 y_a7_proc_2 >= -2560
 c245: u_a2 + K_a7_a2 - 1280 m_a2_proc_0 - 1280 m_a7_proc_0 - u_a7
       - 1026 y_a7_proc_0 >= -2560
 c246: u_a2 + K_a7_a2 - 1280 m_a2_proc_1 - 1280 m_a7_proc_1 - u_a7
       - 794 y_a7_proc_1 >= -2560
 c247: K_a2_a7 + K_a7_a2 = 1
 c248: u_a8 + K_a2_a8 - 1280 m_a2_proc_0 - 1280 m_a8_proc_0 - u_a2
       - 1014 y_a2_proc_0 >= -2560
 c249: u_a8 + K_a2_a8 - 1280 m_a2_proc_1 - 1280 m_a8_proc_1 - u_a2
       - 1219 y_a2_proc_1 >= -2560
 c250: K_a2_a8 + K_a8_a2 = 1
 c251: u_a2 + K_a8_a2 - 1280 m_a2_proc_0 - 1280 m_a8_proc_0 - u_a8
       - 1280 y_a8_proc_0 >= -2560
 c252: u_a2 + K_a8_a2 - 1280 m_a2_proc_1 - 1280 m_a8_proc_1 - u_a8
       - 1031 y_a8_proc_1 >= -2560
 c253: K_a2_a8 + K_a8_a2 = 1
 c254: u_a9 + K_a2_a9 - 1280 m_a2_proc_2 - 1280 m_a9_proc_2 - u_a2
       - 1001 y_a2_proc_2 >= -2560
 c255: u_a9 + K_a2_a9 - 1280 m_a2_proc_1 - 1280 m_a9_proc_1 - u_a2
       - 1219 y_a2_proc_1 >= -2560
 c256: K_a2_a9 + K_a9_a2 = 1
 c257: u_a2 + K_a9_a2 - 1280 m_a2_proc_2 - 1280 m_a9_proc_2 - u_a9
       - 1021 y_a9_proc_2 >= -2560
 c258: u_a2 + K_a9_a2 - 1280 m_a2_proc_1 - 1280 m_a9_proc_1 - u_a9
       - 1055 y_a9_proc_1 >= -2560
 c259: K_a2_a9 + K_a9_a2 = 1
 c260: u_a4 + K_a3_a4 - 1280 m_a3_proc_2 - 1280 m_a4_proc_2 - u_a3
       - 605 y_a3_proc_2 >= -2560
 c261: u_a4 + K_a3_a4 - 1280 m_a3_proc_0 - 1280 m_a4_proc_0 - u_a3
       - 728 y_a3_proc_0 >= -2560
 c262: K_a3_a4 + K_a4_a3 = 1
 c263: u_a3 + K_a4_a3 - 1280 m_a3_proc_2 - 1280 m_a4_proc_2 - u_a4
       - 1233 y_a4_proc_2 >= -2560
 c264: u_a3 + K_a4_a3 - 1280 m_a3_proc_0 - 1280 m_a4_proc_0 - u_a4
       - 1134 y_a4_proc_0 >= -2560
 c265: K_a3_a4 + K_a4_a3 = 1
 c266: u_a6 + K_a3_a6 - 1280 m_a3_proc_2 - 1280 m_a6_proc_2 - u_a3
       - 605 y_a3_proc_2 >= -2560
 c267: u_a6 + K_a3_a6 - 1280 m_a3_proc_0 - 1280 m_a6_proc_0 - u_a3
       - 728 y_a3_proc_0 >= -2560
 c268: K_a3_a6 + K_a6_a3 = 1
 c269: u_a3 + K_a6_a3 - 1280 m_a3_proc_2 - 1280 m_a6_proc_2 - u_a6
       - 1188 y_a6_proc_2 >= -2560
 c270: u_a3 + K_a6_a3 - 1280 m_a3_proc_0 - 1280 m_a6_proc_0 - u_a6
       - 872 y_a6_proc_0 >= -2560
 c271: K_a3_a6 + K_a6_a3 = 1
 c272: u_a7 + K_a3_a7 - 1280 m_a3_proc_2 - 1280 m_a7_proc_2 - u_a3
       - 605 y_a3_proc_2 >= -2560
 c273: u_a7 + K_a3_a7 - 1280 m_a3_proc_0 - 1280 m_a7_proc_0 - u_a3
       - 728 y_a3_proc_0 >= -2560
 c274: K_a3_a7 + K_a7_a3 = 1
 c275: u_a3 + K_a7_a3 - 1280 m_a3_proc_2 - 1280 m_a7_proc_2 - u_a7
       - 745 y_a7_proc_2 >= -2560
 c276: u_a3 + K_a7_a3 - 1280 m_a3_proc_0 - 1280 m_a7_proc_0 - u_a7
       - 1026 y_a7_proc_0 >= -2560
 c277: K_a3_a7 + K_a7_a3 = 1
 c278: u_a8 + K_a3_a8 - 1280 m_a3_proc_0 - 1280 m_a8_proc_0 - u_a3
       - 728 y_a3_proc_0 >= -2560
 c279: K_a3_a8 + K_a8_a3 = 1
 c280: u_a3 + K_a8_a3 - 1280 m_a3_proc_0 - 1280 m_a8_proc_0 - u_a8
       - 1280 y_a8_proc_0 >= -2560
 c281: K_a3_a8 + K_a8_a3 = 1
 c282: u_a9 + K_a3_a9 - 1280 m_a3_proc_2 - 1280 m_a9_proc_2 - u_a3
       - 605 y_a3_proc_2 >= -2560
 c283: K_a3_a9 + K_a9_a3 = 1
 c284: u_a3 + K_a9_a3 - 1280 m_a3_proc_2 - 1280 m_a9_proc_2 - u_a9
       - 1021 y_a9_proc_2 >= -2560
 c285: K_a3_a9 + K_a9_a3 = 1
 c286: u_a5 + K_a4_a5 - 1280 m_a4_proc_1 - 1280 m_a5_proc_1 - u_a4
       - 352 y_a4_proc_1 >= -2560
 c287: K_a4_a5 + K_a5_a4 = 1
 c288: u_a4 + K_a5_a4 - 1280 m_a4_proc_1 - 1280 m_a5_proc_1 - u_a5
       - 715 y_a5_proc_1 >= -2560
 c289: K_a4_a5 + K_a5_a4 = 1
 c290: u_a6 + K_a4_a6 - 1280 m_a4_proc_2 - 1280 m_a6_proc_2 - u_a4
       - 1233 y_a4_proc_2 >= -2560
 c291: u_a6 + K_a4_a6 - 1280 m_a4_proc_0 - 1280 m_a6_proc_0 - u_a4
       - 1134 y_a4_proc_0 >= -2560
 c292: u_a6 + K_a4_a6 - 1280 m_a4_proc_1 - 1280 m_a6_proc_1 - u_a4
       - 352 y_a4_proc_1 >= -2560
 c293: K_a4_a6 + K_a6_a4 = 1
 c294: u_a4 + K_a6_a4 - 1280 m_a4_proc_2 - 1280 m_a6_proc_2 - u_a6
       - 1188 y_a6_proc_2 >= -2560
 c295: u_a4 + K_a6_a4 - 1280 m_a4_proc_0 - 1280 m_a6_proc_0 - u_a6
       - 872 y_a6_proc_0 >= -2560
 c296: u_a4 + K_a6_a4 - 1280 m_a4_proc_1 - 1280 m_a6_proc_1 - u_a6
       - 934 y_a6_proc_1 >= -2560
 c297: K_a4_a6 + K_a6_a4 = 1
 c298: u_a7 + K_a4_a7 - 1280 m_a4_proc_2 - 1280 m_a7_proc_2 - u_a4
       - 1233 y_a4_proc_2 >= -2560
 c299: u_a7 + K_a4_a7 - 1280 m_a4_proc_0 - 1280 m_a7_proc_0 - u_a4
       - 1134 y_a4_proc_0 >= -2560
 c300: u_a7 + K_a4_a7 - 1280 m_a4_proc_1 - 1280 m_a7_proc_1 - u_a4
       - 352 y_a4_proc_1 >= -2560
 c301: K_a4_a7 + K_a7_a4 = 1
 c302: u_a4 + K_a7_a4 - 1280 m_a4_proc_2 - 1280 m_a7_proc_2 - u_a7
       - 745 y_a7_proc_2 >= -2560
 c303: u_a4 + K_a7_a4 - 1280 m_a4_proc_0 - 1280 m_a7_proc_0 - u_a7
       - 1026 y_a7_proc_0 >= -2560
 c304: u_a4 + K_a7_a4 - 1280 m_a4_proc_1 - 1280 m_a7_proc_1 - u_a7
       - 794 y_a7_proc_1 >= -2560
 c305: K_a4_a7 + K_a7_a4 = 1
 c306: u_a8 + K_a4_a8 - 1280 m_a4_proc_0 - 1280 m_a8_proc_0 - u_a4
       - 1134 y_a4_proc_0 >= -2560
 c307: u_a8 + K_a4_a8 - 1280 m_a4_proc_1 - 1280 m_a8_proc_1 - u_a4
       - 352 y_a4_proc_1 >= -2560
 c308: K_a4_a8 + K_a8_a4 = 1
 c309: u_a4 + K_a8_a4 - 1280 m_a4_proc_0 - 1280 m_a8_proc_0 - u_a8
       - 1280 y_a8_proc_0 >= -2560
 c310: u_a4 + K_a8_a4 - 1280 m_a4_proc_1 - 1280 m_a8_proc_1 - u_a8
       - 1031 y_a8_proc_1 >= -2560
 c311: K_a4_a8 + K_a8_a4 = 1
 c312: u_a9 + K_a4_a9 - 1280 m_a4_proc_2 - 1280 m_a9_proc_2 - u_a4
       - 1233 y_a4_proc_2 >= -2560
 c313: u_a9 + K_a4_a9 - 1280 m_a4_proc_1 - 1280 m_a9_proc_1 - u_a4
       - 352 y_a4_proc_1 >= -2560
 c314: K_a4_a9 + K_a9_a4 = 1
 c315: u_a4 + K_a9_a4 - 1280 m_a4_proc_2 - 1280 m_a9_proc_2 - u_a9
       - 1021 y_a9_proc_2 >= -2560
 c316: u_a4 + K_a9_a4 - 1280 m_a4_proc_1 - 1280 m_a9_proc_1 - u_a9
       - 1055 y_a9_proc_1 >= -2560
 c317: K_a4_a9 + K_a9_a4 = 1
 c318: u_a6 + K_a5_a6 - 1280 m_a5_proc_1 - 1280 m_a6_proc_1 - u_a5
       - 715 y_a5_proc_1 >= -2560
 c319: K_a5_a6 + K_a6_a5 = 1
 c320: u_a5 + K_a6_a5 - 1280 m_a5_proc_1 - 1280 m_a6_proc_1 - u_a6
       - 934 y_a6_proc_1 >= -2560
 c321: K_a5_a6 + K_a6_a5 = 1
 c322: u_a7 + K_a5_a7 - 1280 m_a5_proc_1 - 1280 m_a7_proc_1 - u_a5
       - 715 y_a5_proc_1 >= -2560
 c323: K_a5_a7 + K_a7_a5 = 1
 c324: u_a5 + K_a7_a5 - 1280 m_a5_proc_1 - 1280 m_a7_proc_1 - u_a7
       - 794 y_a7_proc_1 >= -2560
 c325: K_a5_a7 + K_a7_a5 = 1
 c326: u_a8 + K_a5_a8 - 1280 m_a5_proc_1 - 1280 m_a8_proc_1 - u_a5
       - 715 y_a5_proc_1 >= -2560
 c327: K_a5_a8 + K_a8_a5 = 1
 c328: u_a5 + K_a8_a5 - 1280 m_a5_proc_1 - 1280 m_a8_proc_1 - u_a8
       - 1031 y_a8_proc_1 >= -2560
 c329: K_a5_a8 + K_a8_a5 = 1
 c330: u_a9 + K_a5_a9 - 1280 m_a5_proc_1 - 1280 m_a9_proc_1 - u_a5
       - 715 y_a5_proc_1 >= -2560
 c331: K_a5_a9 + K_a9_a5 = 1
 c332: u_a5 + K_a9_a5 - 1280 m_a5_proc_1 - 1280 m_a9_proc_1 - u_a9
       - 1055 y_a9_proc_1 >= -2560
 c333: K_a5_a9 + K_a9_a5 = 1
 c334: u_a7 + K_a6_a7 - 1280 m_a6_proc_2 - 1280 m_a7_proc_2 - u_a6
       - 1188 y_a6_proc_2 >= -2560
 c335: u_a7 + K_a6_a7 - 1280 m_a6_proc_0 - 1280 m_a7_proc_0 - u_a6
       - 872 y_a6_proc_0 >= -2560
 c336: u_a7 + K_a6_a7 - 1280 m_a6_proc_1 - 1280 m_a7_proc_1 - u_a6
       - 934 y_a6_proc_1 >= -2560
 c337: K_a6_a7 + K_a7_a6 = 1
 c338: u_a6 + K_a7_a6 - 1280 m_a6_proc_2 - 1280 m_a7_proc_2 - u_a7
       - 745 y_a7_proc_2 >= -2560
 c339: u_a6 + K_a7_a6 - 1280 m_a6_proc_0 - 1280 m_a7_proc_0 - u_a7
       - 1026 y_a7_proc_0 >= -2560
 c340: u_a6 + K_a7_a6 - 1280 m_a6_proc_1 - 1280 m_a7_proc_1 - u_a7
       - 794 y_a7_proc_1 >= -2560
 c341: K_a6_a7 + K_a7_a6 = 1
 c342: u_a8 + K_a6_a8 - 1280 m_a6_proc_0 - 1280 m_a8_proc_0 - u_a6
       - 872 y_a6_proc_0 >= -2560
 c343: u_a8 + K_a6_a8 - 1280 m_a6_proc_1 - 1280 m_a8_proc_1 - u_a6
       - 934 y_a6_proc_1 >= -2560
 c344: K_a6_a8 + K_a8_a6 = 1
 c345: u_a6 + K_a8_a6 - 1280 m_a6_proc_0 - 1280 m_a8_proc_0 - u_a8
       - 1280 y_a8_proc_0 >= -2560
 c346: u_a6 + K_a8_a6 - 1280 m_a6_proc_1 - 1280 m_a8_proc_1 - u_a8
       - 1031 y_a8_proc_1 >= -2560
 c347: K_a6_a8 + K_a8_a6 = 1
 c348: u_a9 + K_a6_a9 - 1280 m_a6_proc_2 - 1280 m_a9_proc_2 - u_a6
       - 1188 y_a6_proc_2 >= -2560
 c349: u_a9 + K_a6_a9 - 1280 m_a6_proc_1 - 1280 m_a9_proc_1 - u_a6
       - 934 y_a6_proc_1 >= -2560
 c350: K_a6_a9 + K_a9_a6 = 1
 c351: u_a6 + K_a9_a6 - 1280 m_a6_proc_2 - 1280 m_a9_proc_2 - u_a9
       - 1021 y_a9_proc_2 >= -2560
 c352: u_a6 + K_a9_a6 - 1280 m_a6_proc_1 - 1280 m_a9_proc_1 - u_a9
       - 1055 y_a9_proc_1 >= -2560
 c353: K_a6_a9 + K_a9_a6 = 1
 c354: u_a8 + K_a7_a8 - 1280 m_a7_proc_0 - 1280 m_a8_proc_0 - u_a7
       - 1026 y_a7_proc_0 >= -2560
 c355: u_a8 + K_a7_a8 - 1280 m_a7_proc_1 - 1280 m_a8_proc_1 - u_a7
       - 794 y_a7_proc_1 >= -2560
 c356: K_a7_a8 + K_a8_a7 = 1
 c357: u_a7 + K_a8_a7 - 1280 m_a7_proc_0 - 1280 m_a8_proc_0 - u_a8
       - 1280 y_a8_proc_0 >= -2560
 c358: u_a7 + K_a8_a7 - 1280 m_a7_proc_1 - 1280 m_a8_proc_1 - u_a8
       - 1031 y_a8_proc_1 >= -2560
 c359: K_a7_a8 + K_a8_a7 = 1
 c360: u_a9 + K_a7_a9 - 1280 m_a7_proc_2 - 1280 m_a9_proc_2 - u_a7
       - 745 y_a7_proc_2 >= -2560
 c361: u_a9 + K_a7_a9 - 1280 m_a7_proc_1 - 1280 m_a9_proc_1 - u_a7
       - 794 y_a7_proc_1 >= -2560
 c362: K_a7_a9 + K_a9_a7 = 1
 c363: u_a7 + K_a9_a7 - 1280 m_a7_proc_2 - 1280 m_a9_proc_2 - u_a9
       - 1021 y_a9_proc_2 >= -2560
 c364: u_a7 + K_a9_a7 - 1280 m_a7_proc_1 - 1280 m_a9_proc_1 - u_a9
       - 1055 y_a9_proc_1 >= -2560
 c365: K_a7_a9 + K_a9_a7 = 1
 c366: u_a9 + K_a8_a9 - 1280 m_a8_proc_1 - 1280 m_a9_proc_1 - u_a8
       - 1031 y_a8_proc_1 >= -2560
 c367: K_a8_a9 + K_a9_a8 = 1
 c368: u_a8 + K_a9_a8 - 1280 m_a8_proc_1 - 1280 m_a9_proc_1 - u_a9
       - 1055 y_a9_proc_1 >= -2560
 c369: K_a8_a9 + K_a9_a8 = 1

Bounds
 -13 <= K_a0_a1 <= 13
 -13 <= K_a0_a2 <= 13
 -13 <= K_a0_a3 <= 13
 -13 <= K_a0_a4 <= 13
 -13 <= K_a0_a5 <= 13
 -13 <= K_a0_a6 <= 13
 -13 <= K_a0_a7 <= 13
 -13 <= K_a0_a8 <= 13
 -13 <= K_a0_a9 <= 13
 -13 <= K_a1_a0 <= 13
 -13 <= K_a1_a2 <= 13
 -13 <= K_a1_a3 <= 13
 -13 <= K_a1_a4 <= 13
 -13 <= K_a1_a5 <= 13
 -13 <= K_a1_a6 <= 13
 -13 <= K_a1_a7 <= 13
 -13 <= K_a1_a8 <= 13
 -13 <= K_a1_a9 <= 13
 -13 <= K_a2_a0 <= 13
 -13 <= K_a2_a1 <= 13
 -13 <= K_a2_a3 <= 13
 -13 <= K_a2_a4 <= 13
 -13 <= K_a2_a5 <= 13
 -13 <= K_a2_a6 <= 13
 -13 <= K_a2_a7 <= 13
 -13 <= K_a2_a8 <= 13
 -13 <= K_a2_a9 <= 13
 -13 <= K_a3_a0 <= 13
 -13 <= K_a3_a1 <= 13
 -13 <= K_a3_a2 <= 13
 -13 <= K_a3_a4 <= 13
 -13 <= K_a3_a5 <= 13
 -13 <= K_a3_a6 <= 13
 -13 <= K_a3_a7 <= 13
 -13 <= K_a3_a8 <= 13
 -13 <= K_a3_a9 <= 13
 -13 <= K_a4_a0 <= 13
 -13 <= K_a4_a1 <= 13
 -13 <= K_a4_a2 <= 13
 -13 <= K_a4_a3 <= 13
 -13 <= K_a4_a5 <= 13
 -13 <= K_a4_a6 <= 13
 -13 <= K_a4_a7 <= 13
 -13 <= K_a4_a8 <= 13
 -13 <= K_a4_a9 <= 13
 -13 <= K_a5_a0 <= 13
 -13 <= K_a5_a1 <= 13
 -13 <= K_a5_a2 <= 13
 -13 <= K_a5_a3 <= 13
 -13 <= K_a5_a4 <= 13
 -13 <= K_a5_a6 <= 13
 -13 <= K_a5_a7 <= 13
 -13 <= K_a5_a8 <= 13
 -13 <= K_a5_a9 <= 13
 -13 <= K_a6_a0 <= 13
 -13 <= K_a6_a1 <= 13
 -13 <= K_a6_a2 <= 13
 -13 <= K_a6_a3 <= 13
 -13 <= K_a6_a4 <= 13
 -13 <= K_a6_a5 <= 13
 -13 <= K_a6_a7 <= 13
 -13 <= K_a6_a8 <= 13
 -13 <= K_a6_a9 <= 13
 -13 <= K_a7_a0 <= 13
 -13 <= K_a7_a1 <= 13
 -13 <= K_a7_a2 <= 13
 -13 <= K_a7_a3 <= 13
 -13 <= K_a7_a4 <= 13
 -13 <= K_a7_a5 <= 13
 -13 <= K_a7_a6 <= 13
 -13 <= K_a7_a8 <= 13
 -13 <= K_a7_a9 <= 13
 -13 <= K_a8_a0 <= 13
 -13 <= K_a8_a1 <= 13
 -13 <= K_a8_a2 <= 13
 -13 <= K_a8_a3 <= 13
 -13 <= K_a8_a4 <= 13
 -13 <= K_a8_a5 <= 13
 -13 <= K_a8_a6 <= 13
 -13 <= K_a8_a7 <= 13
 -13 <= K_a8_a9 <= 13
 -13 <= K_a9_a0 <= 13
 -13 <= K_a9_a1 <= 13
 -13 <= K_a9_a2 <= 13
 -13 <= K_a9_a3 <= 13
 -13 <= K_a9_a4 <= 13
 -13 <= K_a9_a5 <= 13
 -13 <= K_a9_a6 <= 13
 -13 <= K_a9_a7 <= 13
 -13 <= K_a9_a8 <= 13
 0 <= m_a0_proc_0 <= 1
 0 <= m_a0_proc_1 <= 1
 0 <= m_a0_proc_2 <= 1
 0 <= m_a1_proc_0 <= 1
 0 <= m_a1_proc_1 <= 1
 0 <= m_a1_proc_2 <= 1
 0 <= m_a2_proc_0 <= 1
 0 <= m_a2_proc_1 <= 1
 0 <= m_a2_proc_2 <= 1
 0 <= m_a3_proc_0 <= 1
 0 <= m_a3_proc_2 <= 1
 0 <= m_a4_proc_0 <= 1
 0 <= m_a4_proc_1 <= 1
 0 <= m_a4_proc_2 <= 1
 0 <= m_a5_proc_1 <= 1
 0 <= m_a6_proc_0 <= 1
 0 <= m_a6_proc_1 <= 1
 0 <= m_a6_proc_2 <= 1
 0 <= m_a7_proc_0 <= 1
 0 <= m_a7_proc_1 <= 1
 0 <= m_a7_proc_2 <= 1
 0 <= m_a8_proc_0 <= 1
 0 <= m_a8_proc_1 <= 1
 0 <= m_a9_proc_1 <= 1
 0 <= m_a9_proc_2 <= 1

Binaries
 m_a0_proc_0 m_a0_proc_1 m_a0_proc_2 m_a1_proc_0 m_a1_proc_1 m_a1_proc_2
 m_a2_proc_0 m_a2_proc_1 m_a2_proc_2 m_a3_proc_0 m_a3_proc_2 m_a4_proc_0
 m_a4_proc_1 m_a4_proc_2 m_a5_proc_1 m_a6_proc_0 m_a6_proc_1 m_a6_proc_2
 m_a7_proc_0 m_a7_proc_1 m_a7_proc_2 m_a8_proc_0 m_a8_proc_1 m_a9_proc_1
 m_a9_proc_2

Generals
 K_a0_a1 K_a0_a2 K_a0_a3 K_a0_a4 K_a0_a5 K_a0_a6 K_a0_a7 K_a0_a8 K_a0_a9 K_a1_a0
 K_a1_a2 K_a1_a3 K_a1_a4 K_a1_a5 K_a1_a6 K_a1_a7 K_a1_a8 K_a1_a9 K_a2_a0 K_a2_a1
 K_a2_a3 K_a2_a4 K_a2_a5 K_a2_a6 K_a2_a7 K_a2_a8 K_a2_a9 K_a3_a0 K_a3_a1 K_a3_a2
 K_a3_a4 K_a3_a5 K_a3_a6 K_a3_a7 K_a3_a8 K_a3_a9 K_a4_a0 K_a4_a1 K_a4_a2 K_a4_a3
 K_a4_a5 K_a4_a6 K_a4_a7 K_a4_a8 K_a4_a9 K_a5_a0 K_a5_a1 K_a5_a2 K_a5_a3 K_a5_a4
 K_a5_a6 K_a5_a7 K_a5_a8 K_a5_a9 K_a6_a0 K_a6_a1 K_a6_a2 K_a6_a3 K_a6_a4 K_a6_a5
 K_a6_a7 K_a6_a8 K_a6_a9 K_a7_a0 K_a7_a1 K_a7_a2 K_a7_a3 K_a7_a4 K_a7_a5 K_a7_a6
 K_a7_a8 K_a7_a9 K_a8_a0 K_a8_a1 K_a8_a2 K_a8_a3 K_a8_a4 K_a8_a5 K_a8_a6 K_a8_a7
 K_a8_a9 K_a9_a0 K_a9_a1 K_a9_a2 K_a9_a3 K_a9_a4 K_a9_a5 K_a9_a6 K_a9_a7 K_a9_a8
End
