benchmark/results/graph__10-1000-0.10-03_1/graph__10-1000-0.10-03_1_QuintonOs_Monolithic.txt
solution for: Quinton Bounded Monolithic
objective: 0.000254907
status: OPTIMAL_SOLUTION(2)
u_a0=1.185
u_a1=0.860
u_a2=0.604
u_a4=13.277
u_a5=12.832
u_a6=0.366
u_a7=0.154
u_a8=13.014
u_a9=0.344
tau=0.000
K_a0_a1=1
K_a0_a2=13
K_a0_a3=13
K_a0_a4=13
K_a0_a5=13
K_a0_a6=13
K_a0_a7=13
K_a0_a8=13
K_a0_a9=13
K_a1_a2=13
K_a1_a3=13
K_a1_a4=13
K_a1_a5=13
K_a1_a6=13
K_a1_a7=13
K_a1_a8=13
K_a1_a9=13
K_a2_a0=-12
K_a2_a1=-12
K_a2_a3=1
K_a2_a4=13
K_a2_a5=13
K_a2_a6=13
K_a2_a7=1
K_a2_a8=13
K_a2_a9=1
K_a3_a0=-12
K_a3_a1=-12
K_a3_a4=13
K_a3_a5=-13
K_a3_a6=13
K_a3_a8=13
K_a4_a0=-12
K_a4_a1=-12
K_a4_a2=-12
K_a4_a3=-12
K_a4_a5=1
K_a4_a6=13
K_a4_a7=13
K_a4_a8=1
K_a4_a9=13
K_a5_a0=-12
K_a5_a1=-12
K_a5_a2=-12
K_a5_a3=-13
K_a5_a6=13
K_a5_a7=13
K_a5_a9=13
K_a6_a0=-12
K_a6_a1=-12
K_a6_a2=-12
K_a6_a3=-12
K_a6_a4=-12
K_a6_a5=-12
K_a6_a7=13
K_a6_a8=-12
K_a6_a9=13
K_a7_a0=-12
K_a7_a1=-12
K_a7_a3=1
K_a7_a4=-12
K_a7_a5=-12
K_a7_a6=-12
K_a7_a8=13
K_a8_a0=-12
K_a8_a1=-12
K_a8_a2=-12
K_a8_a3=-12
K_a8_a5=1
K_a8_a6=13
K_a8_a7=-12
K_a8_a9=13
K_a9_a0=-12
K_a9_a1=-12
K_a9_a3=1
K_a9_a4=-12
K_a9_a5=-12
K_a9_a6=-12
K_a9_a7=1
K_a9_a8=-12
m_a0_proc_0=1
m_a1_proc_0=1
m_a2_proc_2=1
m_a3_proc_2=1
m_a4_proc_1=1
m_a5_proc_1=1
m_a6_proc_1=1
m_a7_proc_2=1
m_a8_proc_1=1
m_a9_proc_2=1
y_a0_proc_0=0.000
y_a1_proc_0=0.000
y_a2_proc_2=0.000
y_a3_proc_2=0.000
y_a4_proc_1=0.000
y_a5_proc_1=0.000
y_a6_proc_1=0.000
y_a7_proc_2=0.000
y_a8_proc_1=0.000
y_a9_proc_2=0.000
